c generated by sgen
p cnf 101 212
-2 -3 -4 0
-1 -3 -4 0
-1 -2 -4 0
-1 -2 -3 0
-6 -7 -8 0
-5 -7 -8 0
-5 -6 -8 0
-5 -6 -7 0
-10 -11 -12 0
-9 -11 -12 0
-9 -10 -12 0
-9 -10 -11 0
-14 -15 -16 0
-13 -15 -16 0
-13 -14 -16 0
-13 -14 -15 0
-18 -19 -20 0
-17 -19 -20 0
-17 -18 -20 0
-17 -18 -19 0
-22 -23 -24 0
-21 -23 -24 0
-21 -22 -24 0
-21 -22 -23 0
-26 -27 -28 0
-25 -27 -28 0
-25 -26 -28 0
-25 -26 -27 0
-30 -31 -32 0
-29 -31 -32 0
-29 -30 -32 0
-29 -30 -31 0
-34 -35 -36 0
-33 -35 -36 0
-33 -34 -36 0
-33 -34 -35 0
-38 -39 -40 0
-37 -39 -40 0
-37 -38 -40 0
-37 -38 -39 0
-42 -43 -44 0
-41 -43 -44 0
-41 -42 -44 0
-41 -42 -43 0
-46 -47 -48 0
-45 -47 -48 0
-45 -46 -48 0
-45 -46 -47 0
-50 -51 -52 0
-49 -51 -52 0
-49 -50 -52 0
-49 -50 -51 0
-54 -55 -56 0
-53 -55 -56 0
-53 -54 -56 0
-53 -54 -55 0
-58 -59 -60 0
-57 -59 -60 0
-57 -58 -60 0
-57 -58 -59 0
-62 -63 -64 0
-61 -63 -64 0
-61 -62 -64 0
-61 -62 -63 0
-66 -67 -68 0
-65 -67 -68 0
-65 -66 -68 0
-65 -66 -67 0
-70 -71 -72 0
-69 -71 -72 0
-69 -70 -72 0
-69 -70 -71 0
-74 -75 -76 0
-73 -75 -76 0
-73 -74 -76 0
-73 -74 -75 0
-78 -79 -80 0
-77 -79 -80 0
-77 -78 -80 0
-77 -78 -79 0
-82 -83 -84 0
-81 -83 -84 0
-81 -82 -84 0
-81 -82 -83 0
-86 -87 -88 0
-85 -87 -88 0
-85 -86 -88 0
-85 -86 -87 0
-90 -91 -92 0
-89 -91 -92 0
-89 -90 -92 0
-89 -90 -91 0
-94 -95 -96 0
-93 -95 -96 0
-93 -94 -96 0
-93 -94 -95 0
-97 -98 -99 0
-97 -98 -100 0
-97 -98 -101 0
-97 -99 -100 0
-97 -99 -101 0
-97 -100 -101 0
-98 -99 -100 0
-98 -99 -101 0
-98 -100 -101 0
-99 -100 -101 0
50 6 81 0
77 6 81 0
77 50 81 0
77 50 6 0
1 29 71 0
39 29 71 0
39 1 71 0
39 1 29 0
41 101 91 0
93 101 91 0
93 41 91 0
93 41 101 0
25 52 62 0
89 52 62 0
89 25 62 0
89 25 52 0
78 65 2 0
53 65 2 0
53 78 2 0
53 78 65 0
10 15 19 0
88 15 19 0
88 10 19 0
88 10 15 0
67 42 12 0
36 42 12 0
36 67 12 0
36 67 42 0
22 11 80 0
99 11 80 0
99 22 80 0
99 22 11 0
86 57 61 0
28 57 61 0
28 86 61 0
28 86 57 0
34 46 27 0
100 46 27 0
100 34 27 0
100 34 46 0
84 14 90 0
4 14 90 0
4 84 90 0
4 84 14 0
5 32 56 0
26 32 56 0
26 5 56 0
26 5 32 0
75 58 30 0
66 58 30 0
66 75 30 0
66 75 58 0
59 35 23 0
92 35 23 0
92 59 23 0
92 59 35 0
17 54 83 0
21 54 83 0
21 17 83 0
21 17 54 0
20 48 7 0
3 48 7 0
3 20 7 0
3 20 48 0
79 33 64 0
74 33 64 0
74 79 64 0
74 79 33 0
76 45 85 0
94 45 85 0
94 76 85 0
94 76 45 0
87 38 68 0
97 38 68 0
97 87 68 0
97 87 38 0
31 44 13 0
24 44 13 0
24 31 13 0
24 31 44 0
70 47 55 0
51 47 55 0
51 70 55 0
51 70 47 0
82 73 40 0
43 73 40 0
43 82 40 0
43 82 73 0
18 72 98 0
95 72 98 0
95 18 98 0
95 18 72 0
63 16 8 0
69 16 8 0
69 63 8 0
69 63 16 0
49 9 60 0
49 9 37 0
49 9 96 0
49 60 37 0
49 60 96 0
49 37 96 0
9 60 37 0
9 60 96 0
9 37 96 0
60 37 96 0
